p cnf 12 33
1 2 3 4 0
5 6 7 8 0
9 10 11 12 0
-1 -2 0
-1 -3 0
-1 -4 0
-2 -3 0
-2 -4 0
-3 -4 0
-5 -6 0
-5 -7 0
-5 -8 0
-6 -7 0
-6 -8 0
-7 -8 0
-9 -10 0
-9 -11 0
-9 -12 0
-10 -11 0
-10 -12 0
-11 -12 0
-1 -5 0
-1 -9 0
-5 -9 0
-2 -6 0
-2 -10 0
-6 -10 0
-3 -7 0
-3 -11 0
-7 -11 0
-4 -8 0
-4 -12 0
-8 -12 0
